NAME          GNOME_SORT
ROWS
 N  COST
 L  C1
 L  C2
 L  C3
 L  C4
 L  C5
 L  C6
 L  C7
 L  C8
 L  C9
COLUMNS
    X1        COST        1.0   C1        1.0
    X2        COST        1.0   C1       -1.0   C2        1.0
    X3        COST        1.0   C2       -1.0   C3        1.0
    X4        COST        1.0   C3       -1.0   C4        1.0
    X5        COST        1.0   C4       -1.0   C5        1.0
    X6        COST        1.0   C5       -1.0   C6        1.0
    X7        COST        1.0   C6       -1.0   C7        1.0
    X8        COST        1.0   C7       -1.0   C8        1.0
    X9        COST        1.0   C8       -1.0   C9        1.0
    X10       COST        1.0   C9       -1.0
RHS
    RHS       C1          0.0
    RHS       C2          0.0
    RHS       C3          0.0
    RHS       C4          0.0
    RHS       C5          0.0
    RHS       C6          0.0
    RHS       C7          0.0
    RHS       C8          0.0
    RHS       C9          0.0
BOUNDS
 UP BND       X1          9.0
 UP BND       X2          9.0
 UP BND       X3          9.0
 UP BND       X4          9.0
 UP BND       X5          9.0
 UP BND       X6          9.0
 UP BND       X7          9.0
 UP BND       X8          9.0
 UP BND       X9          9.0
 UP BND       X10         9.0
ENDATA
